unknown
(model
; cardinality of BoundSet is 3
(declare-sort BoundSet 0)
; rep: @uc_BoundSet_0
; rep: @uc_BoundSet_1
; rep: @uc_BoundSet_2
; cardinality of UnboundSet is 1
(declare-sort UnboundSet 0)
(declare-fun groundTerm_4 () UnboundSet)
(define-fun IsSuspected ((BOUND_VARIABLE_405 BoundSet)) Bool true)
(define-fun IsTrappedIn ((BOUND_VARIABLE_412 BoundSet) (BOUND_VARIABLE_413 BoundSet)) Bool true)
(define-fun IsHuman ((BOUND_VARIABLE_405 BoundSet)) Bool false)
(define-fun HasDevastated ((BOUND_VARIABLE_405 BoundSet)) Bool false)
)
sat
(model
; cardinality of BoundSet is 1
(declare-sort BoundSet 0)
; rep: @uc_BoundSet_0
; cardinality of UnboundSet is 1
(declare-sort UnboundSet 0)
(declare-fun groundTerm_6 () UnboundSet)
(define-fun IsSuspected ((BOUND_VARIABLE_438 BoundSet)) Bool true)
(define-fun IsTrappedIn ((BOUND_VARIABLE_445 BoundSet) (BOUND_VARIABLE_446 BoundSet)) Bool true)
(define-fun IsHuman ((BOUND_VARIABLE_438 BoundSet)) Bool false)
(define-fun HasDevastated ((BOUND_VARIABLE_438 BoundSet)) Bool false)
)
